RT is False
Default write of storage_offers_DA.csv just to have a file (but constraint should be inactive)
Reading model...
...model read.
creating competitive generators file...
...competitive generators recorded.
Loading data...
.. day-ahead data with real-time VRE data read.
Compiling instance...
...instance created.
Creating Offer Mitigation (model will solve as dispatch if TRUE)...
Solving...

Welcome to IBM(R) ILOG(R) CPLEX(R) Interactive Optimizer 12.8.0.0
  with Simplex, Mixed Integer & Barrier Optimizers
5725-A06 5725-A29 5724-Y48 5724-Y49 5724-Y54 5724-Y55 5655-Y21
Copyright IBM Corp. 1988, 2017.  All Rights Reserved.

Type 'help' for a list of available commands.
Type 'help' followed by a command name for more
information on commands.

CPLEX> Logfile 'cplex.log' closed.
Logfile 'C:\Users\llavi\Desktop\test919\logs\tmpu9hz_f0e.cplex.log' open.
CPLEX> New value for parallel optimization mode: -1
CPLEX> New value for mixed integer optimality gap tolerance: 0.01
CPLEX> New value for integrality tolerance: 1e-09
CPLEX> New value for feasibility tolerance: 0.01
CPLEX> New value for deterministic time limit in ticks: 75000
CPLEX> Problem 'C:\Users\llavi\Desktop\test919\logs\tmpg8aipbzt.pyomo.lp' read.
Read time = 0.20 sec. (3.03 ticks)
CPLEX> Problem name         : C:\Users\llavi\Desktop\test919\logs\tmpg8aipbzt.pyomo.lp
Objective sense      : Minimize
Variables            :   26465  [Nneg: 1,  Box: 22000,  Free: 4464]
Objective nonzeros   :    2496
Linear constraints   :   27515  [Less: 14006,  Greater: 4416,  Equal: 9093]
  Nonzeros           :   89171
  RHS nonzeros       :   12282

Variables            : Min LB: -5000.000        Max UB: 1000000.       
Objective nonzeros   : Min   : 15.73158         Max   : 124.0997       
Linear constraints   :
  Nonzeros           : Min   : 0.8500000        Max   : 3000.000       
  RHS nonzeros       : Min   : 0.008333333      Max   : 5000.000       
CPLEX> CPXPARAM_Simplex_Tolerances_Feasibility          0.01
CPXPARAM_Parallel                                -1
CPXPARAM_DetTimeLimit                            75000
CPXPARAM_MIP_Tolerances_MIPGap                   0.01
CPXPARAM_MIP_Tolerances_Integrality              1.0000000000000001e-09
Parallel mode: opportunistic, using up to 4 threads for concurrent optimization.
Tried aggregator 1 time.
LP Presolve eliminated 21401 rows and 15889 columns.
Aggregator did 717 substitutions.
Reduced LP has 5397 rows, 9859 columns, and 31787 nonzeros.
Presolve time = 0.08 sec. (22.46 ticks)

Iteration log . . .
Iteration:     1   Dual objective     =             0.000000
Perturbation started.
Iteration:   101   Dual objective     =             0.000000
Iteration:   364   Dual objective     =             1.306882
Iteration:   660   Dual objective     =             1.930757
Iteration:   953   Dual objective     =             2.074182
Iteration:  1143   Dual objective     =             2.188425
Iteration:  1497   Dual objective     =             2.250093
Iteration:  1796   Dual objective     =             2.279694
Iteration:  2073   Dual objective     =          2720.562961
Iteration:  2384   Dual objective     =          4293.729879
Iteration:  2680   Dual objective     =         36721.023062
Iteration:  3035   Dual objective     =         44544.402634
Iteration:  3409   Dual objective     =         44544.411570
Iteration:  3733   Dual objective     =         58738.058101
Iteration:  4099   Dual objective     =         64017.929641
Removing perturbation.

Dual simplex solved model.


Dual simplex - Optimal:  Objective =  6.4679334267e+04
Solution time =    0.31 sec.  Iterations = 4476 (0)
Deterministic time = 94.33 ticks  (302.32 ticks/sec)

CPLEX> Solution written to file 'C:\Users\llavi\Desktop\test919\logs\tmpt3jj2zgh.cplex.sol'.
CPLEX> Exporting results... 
...storage offer mitigation file created
Converting model to MPEC...
...converted
NOTE: initial MIP solve with only storage competitive to get feasible solution
Solving...

Welcome to IBM(R) ILOG(R) CPLEX(R) Interactive Optimizer 12.8.0.0
  with Simplex, Mixed Integer & Barrier Optimizers
5725-A06 5725-A29 5724-Y48 5724-Y49 5724-Y54 5724-Y55 5655-Y21
Copyright IBM Corp. 1988, 2017.  All Rights Reserved.

Type 'help' for a list of available commands.
Type 'help' followed by a command name for more
information on commands.

CPLEX> Logfile 'cplex.log' closed.
Logfile 'C:\Users\llavi\Desktop\test919\logs\tmpkv8nze03.cplex.log' open.
CPLEX> New value for parallel optimization mode: -1
CPLEX> New value for mixed integer optimality gap tolerance: 0.01
CPLEX> New value for integrality tolerance: 1e-09
CPLEX> New value for feasibility tolerance: 0.01
CPLEX> New value for deterministic time limit in ticks: 75000
CPLEX> Problem 'C:\Users\llavi\Desktop\test919\logs\tmpxl8tqj73.pyomo.lp' read.
Read time = 0.73 sec. (13.96 ticks)
CPLEX> Problem name         : C:\Users\llavi\Desktop\test919\logs\tmpxl8tqj73.pyomo.lp
Objective sense      : Maximize
Variables            :   53805  [Nneg: 1,  Box: 22000,  Free: 4464,
                                 Binary: 27340]
Objective nonzeros   :    9089
Linear constraints   :  123205  [Less: 41346,  Greater: 59096,  Equal: 22763]
  Nonzeros           :  291716
  RHS nonzeros       :   67424

Variables            : Min LB: -5000.000        Max UB: 1000000.       
Objective nonzeros   : Min   : 0.008333333      Max   : 2500.000       
Linear constraints   :
  Nonzeros           : Min   : 0.008333333      Max   : 1000000.       
  RHS nonzeros       : Min   : 0.008333333      Max   : 1000000.       
CPLEX> CPXPARAM_Simplex_Tolerances_Feasibility          0.01
CPXPARAM_Parallel                                -1
CPXPARAM_DetTimeLimit                            75000
CPXPARAM_MIP_Tolerances_MIPGap                   0.01
CPXPARAM_MIP_Tolerances_Integrality              1.0000000000000001e-09
Tried aggregator 3 times.
MIP Presolve eliminated 88637 rows and 18993 columns.
MIP Presolve added 3359 rows and 0 columns.
MIP Presolve modified 23879 coefficients.
Aggregator did 12955 substitutions.
Reduced MIP has 24972 rows, 21309 columns, and 71184 nonzeros.
Reduced MIP has 8433 binaries, 0 generals, 0 SOSs, and 0 indicators.
Presolve time = 0.63 sec. (165.35 ticks)
Probing fixed 370 vars, tightened 2866 bounds.
Probing time = 5.89 sec. (881.42 ticks)
Tried aggregator 2 times.
MIP Presolve eliminated 835 rows and 743 columns.
MIP Presolve modified 2246 coefficients.
Aggregator did 40 substitutions.
Reduced MIP has 24097 rows, 20526 columns, and 68646 nonzeros.
Reduced MIP has 8062 binaries, 0 generals, 0 SOSs, and 0 indicators.
Presolve time = 0.27 sec. (56.08 ticks)
Probing time = 0.13 sec. (15.23 ticks)
Clique table members: 6444.
MIP emphasis: balance optimality and feasibility.
MIP search method: dynamic search.
Parallel mode: opportunistic, using up to 4 threads.
Root relaxation solution time = 0.89 sec. (452.55 ticks)

        Nodes                                         Cuts/
   Node  Left     Objective  IInf  Best Integer    Best Bound    ItCnt     Gap

      0     0      -23.4052   650                    -23.4052     3511         
      0     2      -23.4052     1                    -23.4052     3511         
Elapsed time = 26.41 sec. (4433.66 ticks, tree = 0.01 MB, solutions = 1)
*     1     1      integral     0     -104.3954      -23.4052     3518   77.58%

Root node processing (before b&c):
  Real time             =   25.84 sec. (4391.72 ticks)
Parallel b&c, 4 threads:
  Real time             =    0.64 sec. (126.23 ticks)
  Sync time (average)   =    0.18 sec.
  Wait time (average)   =    0.03 sec.
                          ------------
Total (root+branch&cut) =   26.48 sec. (4517.95 ticks)

Solution pool: 1 solution saved.

MIP - Integer optimal solution:  Objective = -1.0439540949e+02
Solution time =   26.52 sec.  Iterations = 3528  Nodes = 5
Deterministic time = 4518.10 ticks  (170.40 ticks/sec)

CPLEX> Incumbent solution written to file 'C:\Users\llavi\Desktop\test919\logs\tmpvvph50no.cplex.sol'.
CPLEX> NOTE: no warmstart specified for MIP iteration, default behavior is true
NOTE: resolving with all competitive generators using storage-only solution to warmstart
Solving...

Welcome to IBM(R) ILOG(R) CPLEX(R) Interactive Optimizer 12.8.0.0
  with Simplex, Mixed Integer & Barrier Optimizers
5725-A06 5725-A29 5724-Y48 5724-Y49 5724-Y54 5724-Y55 5655-Y21
Copyright IBM Corp. 1988, 2017.  All Rights Reserved.

Type 'help' for a list of available commands.
Type 'help' followed by a command name for more
information on commands.

CPLEX> Logfile 'cplex.log' closed.
Logfile 'C:\Users\llavi\Desktop\test919\logs\tmpa4z1hfsz.cplex.log' open.
CPLEX> New value for parallel optimization mode: -1
CPLEX> New value for mixed integer optimality gap tolerance: 0.01
CPLEX> New value for integrality tolerance: 1e-09
CPLEX> New value for feasibility tolerance: 0.01
CPLEX> New value for deterministic time limit in ticks: 75000
CPLEX> Problem 'C:\Users\llavi\Desktop\test919\logs\tmpm09tf7x7.pyomo.lp' read.
Read time = 0.72 sec. (13.98 ticks)
CPLEX> MIP start file 'C:\Users\llavi\Desktop\test919\logs\tmpvcvk5wvz.cplex.mst' read.
CPLEX> Problem name         : C:\Users\llavi\Desktop\test919\logs\tmpm09tf7x7.pyomo.lp
Objective sense      : Maximize
Variables            :   54525  [Nneg: 1,  Box: 22720,  Free: 4464,
                                 Binary: 27340]
Objective nonzeros   :    9785
Linear constraints   :  123205  [Less: 41346,  Greater: 59096,  Equal: 22763]
  Nonzeros           :  291716
  RHS nonzeros       :   67424

Variables            : Min LB: -5000.000        Max UB: 1000000.       
Objective nonzeros   : Min   : 0.008333333      Max   : 2500.000       
Linear constraints   :
  Nonzeros           : Min   : 0.008333333      Max   : 1000000.       
  RHS nonzeros       : Min   : 0.008333333      Max   : 1000000.       
CPLEX> CPXPARAM_Simplex_Tolerances_Feasibility          0.01
CPXPARAM_Parallel                                -1
CPXPARAM_DetTimeLimit                            75000
CPXPARAM_MIP_Tolerances_MIPGap                   0.01
CPXPARAM_MIP_Tolerances_Integrality              1.0000000000000001e-09
Warning:  No solution found from 1 MIP starts.
Retaining values of one MIP start for possible repair.
Tried aggregator 3 times.
MIP Presolve eliminated 88637 rows and 19713 columns.
MIP Presolve added 3359 rows and 0 columns.
MIP Presolve modified 23879 coefficients.
Aggregator did 12955 substitutions.
Reduced MIP has 24972 rows, 21309 columns, and 71184 nonzeros.
Reduced MIP has 8433 binaries, 0 generals, 0 SOSs, and 0 indicators.
Presolve time = 0.89 sec. (165.71 ticks)
Probing fixed 370 vars, tightened 2866 bounds.
Probing time = 8.41 sec. (881.42 ticks)
Tried aggregator 2 times.
MIP Presolve eliminated 835 rows and 743 columns.
MIP Presolve modified 2246 coefficients.
Aggregator did 40 substitutions.
Reduced MIP has 24097 rows, 20526 columns, and 68646 nonzeros.
Reduced MIP has 8062 binaries, 0 generals, 0 SOSs, and 0 indicators.
Presolve time = 0.41 sec. (56.08 ticks)
Probing time = 0.14 sec. (15.23 ticks)
Clique table members: 6444.
MIP emphasis: balance optimality and feasibility.
MIP search method: dynamic search.
Parallel mode: opportunistic, using up to 4 threads.
Root relaxation solution time = 1.50 sec. (538.58 ticks)

        Nodes                                         Cuts/
   Node  Left     Objective  IInf  Best Integer    Best Bound    ItCnt     Gap

      0     0   108282.6401   827                 108282.6401     3556         
      0     0   104644.4592   671                   Cuts: 620     3854         
      0     0   104196.8066   593                   Cuts: 283     4000         
      0     0   104089.9558   558                   Cuts: 138     4079         
      0     0   104082.8373   538                    Cuts: 99     4127         
      0     0   104081.8351   509                    Cuts: 83     4166         
      0     0   104081.8351   495                    Cuts: 55     4191         
      0     0   104081.8351   485                    Cuts: 51     4213         
      0     0   104081.8351   477                    Cuts: 30     4227         
      0     0   104081.8351   477                    Cuts: 30     4236         
      0     0   104081.8351   477                    Cuts: 25     4249         
Repair heuristic found nothing.
      0     3   103374.3986   472                     Cuts: 8     4256         
Elapsed time = 73.97 sec. (14305.63 ticks, tree = 0.02 MB, solutions = 0)
     71    41    83231.6848   389                 103239.7062     4965         
    154   119    63502.0770   375                 103239.7062     6307         
    234   157    70976.1372   405                 103239.7062     7343         
    314   205    47779.5567   350                 103239.7062     8277         
    405   259    44307.4424   359                 103239.7062     8896         
    485   334    51001.3743   352                 103239.7062     9937         
    585   383    19189.1649   305                 103239.7062    10218         
    704   437   -13479.5000   292                 103239.7062    10379         
    896   623    37872.1640   290                 103239.7062    10421         
   1551  1299    37872.1640   250                 103239.7062    10673         
Elapsed time = 86.66 sec. (17421.61 ticks, tree = 11.96 MB, solutions = 0)
*  1598  1351      integral     0    20941.0355   103239.7062    10677  393.00%
   1977   665    79605.2945   408    20941.0355   100496.2040    12768  379.90%
   2295   886    26590.0316   359    20941.0355   100496.2040    15170  379.90%
   2352   969    55717.3335   122    20941.0355    60683.3847    24042  189.78%
   2547   129    32470.8290    89    20941.0355    55665.5633    26802  165.82%
   2781   260    26005.9639    68    20941.0355    54080.4926    29276  158.25%
   3016   425    43786.6586    95    20941.0355    53806.3152    33933  156.94%
   3299   595    24965.5982    86    20941.0355    53806.3152    37984  156.94%
   3537   719    44980.5899    97    20941.0355    50821.2054    41520  142.69%
   3761   784    21885.8524    95    20941.0355    50300.7546    44611  140.20%
   3829   923    21405.8590    46    20941.0355    49037.8266    49177  134.17%
Elapsed time = 170.69 sec. (34852.27 ticks, tree = 9.24 MB, solutions = 2)
   4014   912        cutoff          20941.0355    48481.8968    49410  131.52%
   4231  1074    25573.0607    64    20941.0355    47933.4028    57676  128.90%
   4504  1115    40777.3098   107    20941.0355    47455.2104    59686  126.61%
   4768  1339    29017.9241    61    20941.0355    46901.7765    69456  123.97%
   5006  1416    33299.1221    70    20941.0355    46413.4362    71801  121.64%
   5289  1599    31971.3669    79    20941.0355    44543.3607    79523  112.71%
   5569  1704        cutoff          20941.0355    43757.3748    83608  108.96%
   5826  1793        cutoff          20941.0355    41886.2223    86471  100.02%
   6104  1798    28669.6450    84    20941.0355    40422.9675    90094   93.03%
   6389  2127        cutoff          20941.0355    39198.9699   100369   87.19%
Elapsed time = 200.50 sec. (44411.27 ticks, tree = 19.43 MB, solutions = 2)
   6681  2329    25464.3807    69    20941.0355    37558.1593   103772   79.35%
   6990  2530    21058.6577    39    20941.0355    37389.6896   107103   78.55%
   7274  2436    22996.4458    91    20941.0355    37307.9200   106718   78.16%
   7625  2870    24551.0536    60    20941.0355    37048.7408   112978   76.92%
   7865  3180    21027.1503    39    20941.0355    36877.4999   116818   76.10%
   8021  3220    21895.8922    21    20941.0355    36723.3021   117954   75.37%
   8110  3347    30420.2810    70    20941.0355    36723.3021   120339   75.37%
   8395  3453        cutoff          20941.0355    36720.1905   122157   75.35%
   8731  3608    28749.2685    73    20941.0355    36536.4333   125057   74.47%
   9012  3903    27801.6006    53    20941.0355    36437.3155   130180   74.00%
Elapsed time = 234.91 sec. (53972.43 ticks, tree = 36.71 MB, solutions = 2)
   9372  4144    24270.4836    24    20941.0355    36416.3731   135040   73.90%
   9714  4279        cutoff          20941.0355    36399.9015   137357   73.82%
  10029  4673    30867.9734    63    20941.0355    36326.4694   144123   73.47%
  10392  4967    30613.8135    48    20941.0355    36220.7320   147800   72.97%
  10786  5119    25445.6014    55    20941.0355    36220.5903   149205   72.96%
  11179  5369    24354.5163    37    20941.0355    36201.8410   152004   72.88%
  11509  5764    27615.1252    61    20941.0355    36201.8410   156479   72.88%
  11785  5932    21428.5380    30    20941.0355    36201.8410   158631   72.88%
  12060  6067    24188.4296    79    20941.0355    36201.8410   160242   72.88%
  12329  6248    21428.5380    26    20941.0355    36201.8410   162919   72.88%
Elapsed time = 266.27 sec. (63522.60 ticks, tree = 58.85 MB, solutions = 2)
  12634  6477    21150.5347    35    20941.0355    36201.8410   165576   72.88%
  12945  6562    29951.4382    60    20941.0355    36201.8410   166619   72.88%
  13208  6669    24281.3420    34    20941.0355    36201.8410   168631   72.88%
  13422  6754    21309.2253    39    20941.0355    36031.9935   169412   72.06%
  13589  7218    22687.3922    16    20941.0355    36031.9935   174526   72.06%
  13812  7455    21836.3338    39    20941.0355    36031.9935   177416   72.06%
  14107  7053    25282.7388    52    20941.0355    36031.9935   172980   72.06%
  14368  6592    21433.7532    42    20941.0355    36031.9935   167727   72.06%
  14585  7653    29284.7073    62    20941.0355    36031.9935   179650   72.06%
  14687  7505    21878.1306    42    20941.0355    36031.9935   178005   72.06%
Elapsed time = 296.13 sec. (73108.82 ticks, tree = 83.34 MB, solutions = 2)
  14779  7588    21905.7694    53    20941.0355    36031.9935   178719   72.06%

GUB cover cuts applied:  2
Clique cuts applied:  27
Cover cuts applied:  11
Implied bound cuts applied:  62
Flow cuts applied:  1286
Mixed integer rounding cuts applied:  213
Gomory fractional cuts applied:  71

Root node processing (before b&c):
  Real time             =   73.38 sec. (14245.23 ticks)
Parallel b&c, 4 threads:
  Real time             =  222.81 sec. (60762.17 ticks)
  Sync time (average)   =    1.48 sec.
  Wait time (average)   =    0.05 sec.
                          ------------
Total (root+branch&cut) =  296.19 sec. (75007.40 ticks)

Solution pool: 2 solutions saved.

MIP - Deterministic time limit exceeded, integer feasible:  Objective =  2.0941035536e+04
Current MIP best bound =  3.5982023800e+04 (gap = 15041, 71.83%)
Solution time =  296.19 sec.  Iterations = 189700  Nodes = 14870 (8592)
Deterministic time = 75007.56 ticks  (253.24 ticks/sec)

CPLEX> Incumbent solution written to file 'C:\Users\llavi\Desktop\test919\logs\tmpn8rjec7u.cplex.sol'.
CPLEX> Exporting results... 
